n_res = 4;
rcap = [16, 16, 139, 114];
rtype = [1, 1, 2, 2];
n_tasks = 16;
modes = [ {1, 2, 3, 4, 5}, {6, 7, 8, 9, 10}, {11, 12, 13, 14, 15}, {16, 17, 18, 19, 20}, {21, 22, 23, 24, 25}, {26, 27, 28, 29, 30}, {31, 32, 33, 34, 35}, {36, 37, 38, 39, 40}, {41, 42, 43, 44, 45}, {46, 47, 48, 49, 50}, {51, 52, 53, 54, 55}, {56, 57, 58, 59, 60}, {61, 62, 63, 64, 65}, {66, 67, 68, 69, 70}, {71, 72, 73, 74, 75}, {76, 77, 78, 79, 80} ];
succ = [ {4, 7, 10}, {6, 8, 12}, {4, 5, 7}, {8}, {6, 8, 9}, {13, 16}, {9}, {13, 15, 16}, {11, 15}, {12, 15}, {12}, {13, 16}, {14}, {}, {}, {} ];
n_opt = 80;
dur = [4, 5, 6, 7, 9, 2, 4, 6, 6, 9, 5, 5, 7, 8, 9, 1, 4, 4, 6, 9, 1, 2, 2, 3, 5, 4, 7, 7, 7, 9, 4, 5, 7, 10, 10, 3, 5, 6, 7, 7, 1, 4, 5, 5, 9, 1, 2, 4, 6, 7, 1, 4, 5, 6, 7, 4, 5, 6, 6, 7, 3, 4, 5, 6, 10, 1, 4, 6, 7, 8, 5, 6, 7, 10, 10, 2, 6, 6, 10, 10];
rreq = [|  7,  7,  5,  4,  3,  9,  8,  8,  6,  5,  8,  9,  8,  6,  6,  8,  6,  7,  5,  2,  7,  7,  7,  7,  7,  3,  3,  2,  3,  2,  9,  7,  6,  1,  3,  7,  6,  4,  2,  2,  4,  3,  3,  2,  1,  3,  3,  3,  2,  2,  5,  5,  4,  4,  3,  8,  7,  7,  6,  6, 10,  7,  6,  5,  4, 10,  9,  9,  8,  7,  6,  4,  3,  3,  2,  6,  6,  5,  2,  3
        |  7,  7,  7,  7,  7,  3,  2,  2,  2,  1, 10, 10,  8,  7,  5,  9,  9,  8,  8,  7,  8,  6,  6,  4,  3, 10,  7,  8,  7,  7,  6,  5,  5,  4,  4,  4,  4,  3,  3,  2,  9,  9,  8,  9,  8, 10, 10,  9,  9,  9,  9,  9,  9,  8,  8,  9,  9,  8,  8,  8,  6,  5,  5,  4,  4, 10,  9,  7,  6,  5,  7,  6,  6,  5,  6,  4,  4,  4,  4,  4
        |  7,  6,  6,  6,  5,  9,  8,  5,  6,  3, 10,  9,  9,  7,  5, 10,  8,  9,  7,  4,  9,  9,  8,  8,  6,  9,  8,  8,  9,  8,  4,  4,  3,  1,  1,  9,  8,  7,  4,  5,  8,  8,  7,  8,  7,  9,  8,  6,  3,  2,  8,  6,  5,  5,  4, 10,  9,  6,  7,  6, 10,  9,  7,  6,  6,  8,  7,  4,  4,  3, 10,  9,  8,  6,  5,  9,  8,  8,  8,  8
        |  5,  5,  5,  4,  4,  7,  7,  6,  6,  5,  6,  7,  6,  4,  3,  6,  5,  5,  5,  4,  9,  7,  8,  5,  5, 10,  8,  6,  7,  6, 10,  9,  7,  6,  5,  7,  7,  7,  6,  6,  5,  3,  2,  2,  2,  8,  8,  7,  7,  7,  5,  5,  5,  4,  4,  3,  3,  3,  3,  3,  7,  6,  6,  6,  5, 10,  9,  6,  4,  3,  5,  5,  4,  4,  4, 10,  6,  7,  5,  4 |];
